\ Model facility relax lagrangian
\ LP format - for model browsing. Use MPS format to capture full model detail.
Minimize
  1.681909e+06 X[0] + 1.784494e+06 X[1] + 1.114529e+06 X[2] + 878051 X[3]
   + 1.085917e+06 X[4] + 973037 X[5] + 192692 Y[0,0] + 478377 Y[0,1]
   + 50403 Y[0,2] + 250709 Y[0,3] + 14633 Y[0,4] + 362102 Y[1,0]
   + 403050 Y[1,1] + 349059 Y[1,2] + 347527 Y[1,3] + 430884 Y[1,4]
   + 14463 Y[2,0] + 337204 Y[2,1] + 277741 Y[2,2] + 314780 Y[2,3]
   + 301196 Y[2,4] + 130400 Y[3,0] + 265151 Y[3,1] + 61656 Y[3,2]
   + 157124 Y[3,3] + 441845 Y[3,4] + 200932 Y[4,0] + 376055 Y[4,1]
   + 101455 Y[4,2] + 334972 Y[4,3] + 298782 Y[4,4] + 102198 Y[5,0]
   + 159676 Y[5,1] + 36837 Y[5,2] + 234736 Y[5,3] + 435201 Y[5,4]
Subject To
 Demand[0]: Y[0,0] + Y[1,0] + Y[2,0] + Y[3,0] + Y[4,0] + Y[5,0] = 1
 Demand[1]: Y[0,1] + Y[1,1] + Y[2,1] + Y[3,1] + Y[4,1] + Y[5,1] = 1
 Demand[2]: Y[0,2] + Y[1,2] + Y[2,2] + Y[3,2] + Y[4,2] + Y[5,2] = 1
 Demand[3]: Y[0,3] + Y[1,3] + Y[2,3] + Y[3,3] + Y[4,3] + Y[5,3] = 1
 Demand[4]: Y[0,4] + Y[1,4] + Y[2,4] + Y[3,4] + Y[4,4] + Y[5,4] = 1
Bounds
Binaries
 X[0] X[1] X[2] X[3] X[4] X[5] Y[0,0] Y[0,1] Y[0,2] Y[0,3] Y[0,4] Y[1,0]
 Y[1,1] Y[1,2] Y[1,3] Y[1,4] Y[2,0] Y[2,1] Y[2,2] Y[2,3] Y[2,4] Y[3,0]
 Y[3,1] Y[3,2] Y[3,3] Y[3,4] Y[4,0] Y[4,1] Y[4,2] Y[4,3] Y[4,4] Y[5,0]
 Y[5,1] Y[5,2] Y[5,3] Y[5,4]
End
